p edge 32 192
e 1 7
e 1 12
e 1 14
e 1 19
e 1 24
e 1 27
e 2 4
e 2 6
e 2 10
e 2 18
e 2 25
e 2 27
e 3 6
e 3 10
e 3 13
e 3 24
e 3 25
e 3 30
e 4 9
e 4 12
e 4 14
e 4 19
e 4 21
e 4 31
e 5 7
e 5 18
e 5 21
e 5 21
e 5 21
e 5 28
e 6 2
e 6 2
e 6 3
e 6 15
e 6 21
e 6 31
e 7 8
e 7 10
e 7 17
e 7 22
e 7 29
e 7 30
e 8 2
e 8 2
e 8 2
e 8 2
e 8 29
e 8 31
e 9 2
e 9 8
e 9 23
e 9 24
e 9 31
e 9 31
e 10 11
e 10 12
e 10 16
e 10 23
e 10 29
e 10 32
e 11 13
e 11 17
e 11 19
e 11 25
e 11 28
e 11 29
e 12 16
e 12 18
e 12 19
e 12 21
e 12 28
e 12 29
e 13 3
e 13 14
e 13 25
e 13 27
e 13 28
e 13 29
e 14 4
e 14 11
e 14 26
e 14 27
e 14 28
e 14 31
e 15 7
e 15 10
e 15 17
e 15 18
e 15 27
e 15 28
e 16 3
e 16 6
e 16 21
e 16 22
e 16 29
e 16 29
e 17 2
e 17 7
e 17 10
e 17 25
e 17 26
e 17 31
e 18 5
e 18 9
e 18 16
e 18 26
e 18 28
e 18 29
e 19 12
e 19 18
e 19 18
e 19 20
e 19 22
e 19 30
e 20 1
e 20 6
e 20 10
e 20 16
e 20 24
e 20 24
e 21 2
e 21 6
e 21 11
e 21 12
e 21 16
e 21 27
e 22 5
e 22 8
e 22 9
e 22 11
e 22 12
e 22 17
e 23 4
e 23 9
e 23 29
e 23 30
e 23 31
e 23 32
e 24 5
e 24 6
e 24 21
e 24 28
e 24 28
e 24 29
e 25 6
e 25 8
e 25 12
e 25 20
e 25 27
e 25 31
e 26 4
e 26 5
e 26 5
e 26 17
e 26 27
e 26 28
e 27 4
e 27 10
e 27 11
e 27 18
e 27 29
e 27 31
e 28 1
e 28 13
e 28 16
e 28 17
e 28 19
e 28 21
e 29 4
e 29 14
e 29 17
e 29 20
e 29 25
e 29 28
e 30 8
e 30 9
e 30 20
e 30 22
e 30 28
e 30 29
e 31 3
e 31 15
e 31 16
e 31 26
e 31 27
e 31 28
e 32 2
e 32 6
e 32 12
e 32 22
e 32 27
e 32 30
